p cnf 144 1742
1 0
2 0
14 0
15 0
27 0
28 0
40 0
41 0
53 0
54 0
66 0
67 0
79 0
80 0
92 0
93 0
105 0
106 0
118 0
119 0
131 0
132 0
144 0
133 0
13 -2 0
-13 2 0
25 -3 0
-25 3 0
26 -15 0
-26 15 0
37 -4 0
-37 4 0
38 -16 0
-38 16 0
39 -28 0
-39 28 0
49 -5 0
-49 5 0
50 -17 0
-50 17 0
51 -29 0
-51 29 0
52 -41 0
-52 41 0
61 -6 0
-61 6 0
62 -18 0
-62 18 0
63 -30 0
-63 30 0
64 -42 0
-64 42 0
65 -54 0
-65 54 0
73 -7 0
-73 7 0
74 -19 0
-74 19 0
75 -31 0
-75 31 0
76 -43 0
-76 43 0
77 -55 0
-77 55 0
78 -67 0
-78 67 0
85 -8 0
-85 8 0
86 -20 0
-86 20 0
87 -32 0
-87 32 0
88 -44 0
-88 44 0
89 -56 0
-89 56 0
90 -68 0
-90 68 0
91 -80 0
-91 80 0
97 -9 0
-97 9 0
98 -21 0
-98 21 0
99 -33 0
-99 33 0
100 -45 0
-100 45 0
101 -57 0
-101 57 0
102 -69 0
-102 69 0
103 -81 0
-103 81 0
104 -93 0
-104 93 0
109 -10 0
-109 10 0
110 -22 0
-110 22 0
111 -34 0
-111 34 0
112 -46 0
-112 46 0
113 -58 0
-113 58 0
114 -70 0
-114 70 0
115 -82 0
-115 82 0
116 -94 0
-116 94 0
117 -106 0
-117 106 0
121 -11 0
-121 11 0
122 -23 0
-122 23 0
123 -35 0
-123 35 0
124 -47 0
-124 47 0
125 -59 0
-125 59 0
126 -71 0
-126 71 0
127 -83 0
-127 83 0
128 -95 0
-128 95 0
129 -107 0
-129 107 0
130 -119 0
-130 119 0
133 -12 0
-133 12 0
134 -24 0
-134 24 0
135 -36 0
-135 36 0
136 -48 0
-136 48 0
137 -60 0
-137 60 0
138 -72 0
-138 72 0
139 -84 0
-139 84 0
140 -96 0
-140 96 0
141 -108 0
-141 108 0
142 -120 0
-142 120 0
143 -132 0
-143 132 0
3 29 16 4 17 0
-3 -29 -16 -4 -17 0
3 30 16 4 18 0
-3 -30 -16 -4 -18 0
3 31 16 4 19 0
-3 -31 -16 -4 -19 0
3 32 16 4 20 0
-3 -32 -16 -4 -20 0
3 33 16 4 21 0
-3 -33 -16 -4 -21 0
3 34 16 4 22 0
-3 -34 -16 -4 -22 0
3 35 16 4 23 0
-3 -35 -16 -4 -23 0
3 36 16 4 24 0
-3 -36 -16 -4 -24 0
3 30 17 5 18 0
-3 -30 -17 -5 -18 0
3 31 17 5 19 0
-3 -31 -17 -5 -19 0
3 32 17 5 20 0
-3 -32 -17 -5 -20 0
3 33 17 5 21 0
-3 -33 -17 -5 -21 0
3 34 17 5 22 0
-3 -34 -17 -5 -22 0
3 35 17 5 23 0
-3 -35 -17 -5 -23 0
3 36 17 5 24 0
-3 -36 -17 -5 -24 0
3 31 18 6 19 0
-3 -31 -18 -6 -19 0
3 32 18 6 20 0
-3 -32 -18 -6 -20 0
3 33 18 6 21 0
-3 -33 -18 -6 -21 0
3 34 18 6 22 0
-3 -34 -18 -6 -22 0
3 35 18 6 23 0
-3 -35 -18 -6 -23 0
3 36 18 6 24 0
-3 -36 -18 -6 -24 0
3 32 19 7 20 0
-3 -32 -19 -7 -20 0
3 33 19 7 21 0
-3 -33 -19 -7 -21 0
3 34 19 7 22 0
-3 -34 -19 -7 -22 0
3 35 19 7 23 0
-3 -35 -19 -7 -23 0
3 36 19 7 24 0
-3 -36 -19 -7 -24 0
3 33 20 8 21 0
-3 -33 -20 -8 -21 0
3 34 20 8 22 0
-3 -34 -20 -8 -22 0
3 35 20 8 23 0
-3 -35 -20 -8 -23 0
3 36 20 8 24 0
-3 -36 -20 -8 -24 0
3 34 21 9 22 0
-3 -34 -21 -9 -22 0
3 35 21 9 23 0
-3 -35 -21 -9 -23 0
3 36 21 9 24 0
-3 -36 -21 -9 -24 0
3 35 22 10 23 0
-3 -35 -22 -10 -23 0
3 36 22 10 24 0
-3 -36 -22 -10 -24 0
3 36 23 11 24 0
-3 -36 -23 -11 -24 0
4 42 17 5 18 0
-4 -42 -17 -5 -18 0
4 43 17 5 19 0
-4 -43 -17 -5 -19 0
4 44 17 5 20 0
-4 -44 -17 -5 -20 0
4 45 17 5 21 0
-4 -45 -17 -5 -21 0
4 46 17 5 22 0
-4 -46 -17 -5 -22 0
4 47 17 5 23 0
-4 -47 -17 -5 -23 0
4 48 17 5 24 0
-4 -48 -17 -5 -24 0
4 43 18 6 19 0
-4 -43 -18 -6 -19 0
4 44 18 6 20 0
-4 -44 -18 -6 -20 0
4 45 18 6 21 0
-4 -45 -18 -6 -21 0
4 46 18 6 22 0
-4 -46 -18 -6 -22 0
4 47 18 6 23 0
-4 -47 -18 -6 -23 0
4 48 18 6 24 0
-4 -48 -18 -6 -24 0
4 44 19 7 20 0
-4 -44 -19 -7 -20 0
4 45 19 7 21 0
-4 -45 -19 -7 -21 0
4 46 19 7 22 0
-4 -46 -19 -7 -22 0
4 47 19 7 23 0
-4 -47 -19 -7 -23 0
4 48 19 7 24 0
-4 -48 -19 -7 -24 0
4 45 20 8 21 0
-4 -45 -20 -8 -21 0
4 46 20 8 22 0
-4 -46 -20 -8 -22 0
4 47 20 8 23 0
-4 -47 -20 -8 -23 0
4 48 20 8 24 0
-4 -48 -20 -8 -24 0
4 46 21 9 22 0
-4 -46 -21 -9 -22 0
4 47 21 9 23 0
-4 -47 -21 -9 -23 0
4 48 21 9 24 0
-4 -48 -21 -9 -24 0
4 47 22 10 23 0
-4 -47 -22 -10 -23 0
4 48 22 10 24 0
-4 -48 -22 -10 -24 0
4 48 23 11 24 0
-4 -48 -23 -11 -24 0
5 55 18 6 19 0
-5 -55 -18 -6 -19 0
5 56 18 6 20 0
-5 -56 -18 -6 -20 0
5 57 18 6 21 0
-5 -57 -18 -6 -21 0
5 58 18 6 22 0
-5 -58 -18 -6 -22 0
5 59 18 6 23 0
-5 -59 -18 -6 -23 0
5 60 18 6 24 0
-5 -60 -18 -6 -24 0
5 56 19 7 20 0
-5 -56 -19 -7 -20 0
5 57 19 7 21 0
-5 -57 -19 -7 -21 0
5 58 19 7 22 0
-5 -58 -19 -7 -22 0
5 59 19 7 23 0
-5 -59 -19 -7 -23 0
5 60 19 7 24 0
-5 -60 -19 -7 -24 0
5 57 20 8 21 0
-5 -57 -20 -8 -21 0
5 58 20 8 22 0
-5 -58 -20 -8 -22 0
5 59 20 8 23 0
-5 -59 -20 -8 -23 0
5 60 20 8 24 0
-5 -60 -20 -8 -24 0
5 58 21 9 22 0
-5 -58 -21 -9 -22 0
5 59 21 9 23 0
-5 -59 -21 -9 -23 0
5 60 21 9 24 0
-5 -60 -21 -9 -24 0
5 59 22 10 23 0
-5 -59 -22 -10 -23 0
5 60 22 10 24 0
-5 -60 -22 -10 -24 0
5 60 23 11 24 0
-5 -60 -23 -11 -24 0
6 68 19 7 20 0
-6 -68 -19 -7 -20 0
6 69 19 7 21 0
-6 -69 -19 -7 -21 0
6 70 19 7 22 0
-6 -70 -19 -7 -22 0
6 71 19 7 23 0
-6 -71 -19 -7 -23 0
6 72 19 7 24 0
-6 -72 -19 -7 -24 0
6 69 20 8 21 0
-6 -69 -20 -8 -21 0
6 70 20 8 22 0
-6 -70 -20 -8 -22 0
6 71 20 8 23 0
-6 -71 -20 -8 -23 0
6 72 20 8 24 0
-6 -72 -20 -8 -24 0
6 70 21 9 22 0
-6 -70 -21 -9 -22 0
6 71 21 9 23 0
-6 -71 -21 -9 -23 0
6 72 21 9 24 0
-6 -72 -21 -9 -24 0
6 71 22 10 23 0
-6 -71 -22 -10 -23 0
6 72 22 10 24 0
-6 -72 -22 -10 -24 0
6 72 23 11 24 0
-6 -72 -23 -11 -24 0
7 81 20 8 21 0
-7 -81 -20 -8 -21 0
7 82 20 8 22 0
-7 -82 -20 -8 -22 0
7 83 20 8 23 0
-7 -83 -20 -8 -23 0
7 84 20 8 24 0
-7 -84 -20 -8 -24 0
7 82 21 9 22 0
-7 -82 -21 -9 -22 0
7 83 21 9 23 0
-7 -83 -21 -9 -23 0
7 84 21 9 24 0
-7 -84 -21 -9 -24 0
7 83 22 10 23 0
-7 -83 -22 -10 -23 0
7 84 22 10 24 0
-7 -84 -22 -10 -24 0
7 84 23 11 24 0
-7 -84 -23 -11 -24 0
8 94 21 9 22 0
-8 -94 -21 -9 -22 0
8 95 21 9 23 0
-8 -95 -21 -9 -23 0
8 96 21 9 24 0
-8 -96 -21 -9 -24 0
8 95 22 10 23 0
-8 -95 -22 -10 -23 0
8 96 22 10 24 0
-8 -96 -22 -10 -24 0
8 96 23 11 24 0
-8 -96 -23 -11 -24 0
9 107 22 10 23 0
-9 -107 -22 -10 -23 0
9 108 22 10 24 0
-9 -108 -22 -10 -24 0
9 108 23 11 24 0
-9 -108 -23 -11 -24 0
10 120 23 11 24 0
-10 -120 -23 -11 -24 0
4 42 29 5 30 0
-4 -42 -29 -5 -30 0
4 43 29 5 31 0
-4 -43 -29 -5 -31 0
4 44 29 5 32 0
-4 -44 -29 -5 -32 0
4 45 29 5 33 0
-4 -45 -29 -5 -33 0
4 46 29 5 34 0
-4 -46 -29 -5 -34 0
4 47 29 5 35 0
-4 -47 -29 -5 -35 0
4 48 29 5 36 0
-4 -48 -29 -5 -36 0
4 43 30 6 31 0
-4 -43 -30 -6 -31 0
4 44 30 6 32 0
-4 -44 -30 -6 -32 0
4 45 30 6 33 0
-4 -45 -30 -6 -33 0
4 46 30 6 34 0
-4 -46 -30 -6 -34 0
4 47 30 6 35 0
-4 -47 -30 -6 -35 0
4 48 30 6 36 0
-4 -48 -30 -6 -36 0
4 44 31 7 32 0
-4 -44 -31 -7 -32 0
4 45 31 7 33 0
-4 -45 -31 -7 -33 0
4 46 31 7 34 0
-4 -46 -31 -7 -34 0
4 47 31 7 35 0
-4 -47 -31 -7 -35 0
4 48 31 7 36 0
-4 -48 -31 -7 -36 0
4 45 32 8 33 0
-4 -45 -32 -8 -33 0
4 46 32 8 34 0
-4 -46 -32 -8 -34 0
4 47 32 8 35 0
-4 -47 -32 -8 -35 0
4 48 32 8 36 0
-4 -48 -32 -8 -36 0
4 46 33 9 34 0
-4 -46 -33 -9 -34 0
4 47 33 9 35 0
-4 -47 -33 -9 -35 0
4 48 33 9 36 0
-4 -48 -33 -9 -36 0
4 47 34 10 35 0
-4 -47 -34 -10 -35 0
4 48 34 10 36 0
-4 -48 -34 -10 -36 0
4 48 35 11 36 0
-4 -48 -35 -11 -36 0
5 55 30 6 31 0
-5 -55 -30 -6 -31 0
5 56 30 6 32 0
-5 -56 -30 -6 -32 0
5 57 30 6 33 0
-5 -57 -30 -6 -33 0
5 58 30 6 34 0
-5 -58 -30 -6 -34 0
5 59 30 6 35 0
-5 -59 -30 -6 -35 0
5 60 30 6 36 0
-5 -60 -30 -6 -36 0
5 56 31 7 32 0
-5 -56 -31 -7 -32 0
5 57 31 7 33 0
-5 -57 -31 -7 -33 0
5 58 31 7 34 0
-5 -58 -31 -7 -34 0
5 59 31 7 35 0
-5 -59 -31 -7 -35 0
5 60 31 7 36 0
-5 -60 -31 -7 -36 0
5 57 32 8 33 0
-5 -57 -32 -8 -33 0
5 58 32 8 34 0
-5 -58 -32 -8 -34 0
5 59 32 8 35 0
-5 -59 -32 -8 -35 0
5 60 32 8 36 0
-5 -60 -32 -8 -36 0
5 58 33 9 34 0
-5 -58 -33 -9 -34 0
5 59 33 9 35 0
-5 -59 -33 -9 -35 0
5 60 33 9 36 0
-5 -60 -33 -9 -36 0
5 59 34 10 35 0
-5 -59 -34 -10 -35 0
5 60 34 10 36 0
-5 -60 -34 -10 -36 0
5 60 35 11 36 0
-5 -60 -35 -11 -36 0
6 68 31 7 32 0
-6 -68 -31 -7 -32 0
6 69 31 7 33 0
-6 -69 -31 -7 -33 0
6 70 31 7 34 0
-6 -70 -31 -7 -34 0
6 71 31 7 35 0
-6 -71 -31 -7 -35 0
6 72 31 7 36 0
-6 -72 -31 -7 -36 0
6 69 32 8 33 0
-6 -69 -32 -8 -33 0
6 70 32 8 34 0
-6 -70 -32 -8 -34 0
6 71 32 8 35 0
-6 -71 -32 -8 -35 0
6 72 32 8 36 0
-6 -72 -32 -8 -36 0
6 70 33 9 34 0
-6 -70 -33 -9 -34 0
6 71 33 9 35 0
-6 -71 -33 -9 -35 0
6 72 33 9 36 0
-6 -72 -33 -9 -36 0
6 71 34 10 35 0
-6 -71 -34 -10 -35 0
6 72 34 10 36 0
-6 -72 -34 -10 -36 0
6 72 35 11 36 0
-6 -72 -35 -11 -36 0
7 81 32 8 33 0
-7 -81 -32 -8 -33 0
7 82 32 8 34 0
-7 -82 -32 -8 -34 0
7 83 32 8 35 0
-7 -83 -32 -8 -35 0
7 84 32 8 36 0
-7 -84 -32 -8 -36 0
7 82 33 9 34 0
-7 -82 -33 -9 -34 0
7 83 33 9 35 0
-7 -83 -33 -9 -35 0
7 84 33 9 36 0
-7 -84 -33 -9 -36 0
7 83 34 10 35 0
-7 -83 -34 -10 -35 0
7 84 34 10 36 0
-7 -84 -34 -10 -36 0
7 84 35 11 36 0
-7 -84 -35 -11 -36 0
8 94 33 9 34 0
-8 -94 -33 -9 -34 0
8 95 33 9 35 0
-8 -95 -33 -9 -35 0
8 96 33 9 36 0
-8 -96 -33 -9 -36 0
8 95 34 10 35 0
-8 -95 -34 -10 -35 0
8 96 34 10 36 0
-8 -96 -34 -10 -36 0
8 96 35 11 36 0
-8 -96 -35 -11 -36 0
9 107 34 10 35 0
-9 -107 -34 -10 -35 0
9 108 34 10 36 0
-9 -108 -34 -10 -36 0
9 108 35 11 36 0
-9 -108 -35 -11 -36 0
10 120 35 11 36 0
-10 -120 -35 -11 -36 0
5 55 42 6 43 0
-5 -55 -42 -6 -43 0
5 56 42 6 44 0
-5 -56 -42 -6 -44 0
5 57 42 6 45 0
-5 -57 -42 -6 -45 0
5 58 42 6 46 0
-5 -58 -42 -6 -46 0
5 59 42 6 47 0
-5 -59 -42 -6 -47 0
5 60 42 6 48 0
-5 -60 -42 -6 -48 0
5 56 43 7 44 0
-5 -56 -43 -7 -44 0
5 57 43 7 45 0
-5 -57 -43 -7 -45 0
5 58 43 7 46 0
-5 -58 -43 -7 -46 0
5 59 43 7 47 0
-5 -59 -43 -7 -47 0
5 60 43 7 48 0
-5 -60 -43 -7 -48 0
5 57 44 8 45 0
-5 -57 -44 -8 -45 0
5 58 44 8 46 0
-5 -58 -44 -8 -46 0
5 59 44 8 47 0
-5 -59 -44 -8 -47 0
5 60 44 8 48 0
-5 -60 -44 -8 -48 0
5 58 45 9 46 0
-5 -58 -45 -9 -46 0
5 59 45 9 47 0
-5 -59 -45 -9 -47 0
5 60 45 9 48 0
-5 -60 -45 -9 -48 0
5 59 46 10 47 0
-5 -59 -46 -10 -47 0
5 60 46 10 48 0
-5 -60 -46 -10 -48 0
5 60 47 11 48 0
-5 -60 -47 -11 -48 0
6 68 43 7 44 0
-6 -68 -43 -7 -44 0
6 69 43 7 45 0
-6 -69 -43 -7 -45 0
6 70 43 7 46 0
-6 -70 -43 -7 -46 0
6 71 43 7 47 0
-6 -71 -43 -7 -47 0
6 72 43 7 48 0
-6 -72 -43 -7 -48 0
6 69 44 8 45 0
-6 -69 -44 -8 -45 0
6 70 44 8 46 0
-6 -70 -44 -8 -46 0
6 71 44 8 47 0
-6 -71 -44 -8 -47 0
6 72 44 8 48 0
-6 -72 -44 -8 -48 0
6 70 45 9 46 0
-6 -70 -45 -9 -46 0
6 71 45 9 47 0
-6 -71 -45 -9 -47 0
6 72 45 9 48 0
-6 -72 -45 -9 -48 0
6 71 46 10 47 0
-6 -71 -46 -10 -47 0
6 72 46 10 48 0
-6 -72 -46 -10 -48 0
6 72 47 11 48 0
-6 -72 -47 -11 -48 0
7 81 44 8 45 0
-7 -81 -44 -8 -45 0
7 82 44 8 46 0
-7 -82 -44 -8 -46 0
7 83 44 8 47 0
-7 -83 -44 -8 -47 0
7 84 44 8 48 0
-7 -84 -44 -8 -48 0
7 82 45 9 46 0
-7 -82 -45 -9 -46 0
7 83 45 9 47 0
-7 -83 -45 -9 -47 0
7 84 45 9 48 0
-7 -84 -45 -9 -48 0
7 83 46 10 47 0
-7 -83 -46 -10 -47 0
7 84 46 10 48 0
-7 -84 -46 -10 -48 0
7 84 47 11 48 0
-7 -84 -47 -11 -48 0
8 94 45 9 46 0
-8 -94 -45 -9 -46 0
8 95 45 9 47 0
-8 -95 -45 -9 -47 0
8 96 45 9 48 0
-8 -96 -45 -9 -48 0
8 95 46 10 47 0
-8 -95 -46 -10 -47 0
8 96 46 10 48 0
-8 -96 -46 -10 -48 0
8 96 47 11 48 0
-8 -96 -47 -11 -48 0
9 107 46 10 47 0
-9 -107 -46 -10 -47 0
9 108 46 10 48 0
-9 -108 -46 -10 -48 0
9 108 47 11 48 0
-9 -108 -47 -11 -48 0
10 120 47 11 48 0
-10 -120 -47 -11 -48 0
6 68 55 7 56 0
-6 -68 -55 -7 -56 0
6 69 55 7 57 0
-6 -69 -55 -7 -57 0
6 70 55 7 58 0
-6 -70 -55 -7 -58 0
6 71 55 7 59 0
-6 -71 -55 -7 -59 0
6 72 55 7 60 0
-6 -72 -55 -7 -60 0
6 69 56 8 57 0
-6 -69 -56 -8 -57 0
6 70 56 8 58 0
-6 -70 -56 -8 -58 0
6 71 56 8 59 0
-6 -71 -56 -8 -59 0
6 72 56 8 60 0
-6 -72 -56 -8 -60 0
6 70 57 9 58 0
-6 -70 -57 -9 -58 0
6 71 57 9 59 0
-6 -71 -57 -9 -59 0
6 72 57 9 60 0
-6 -72 -57 -9 -60 0
6 71 58 10 59 0
-6 -71 -58 -10 -59 0
6 72 58 10 60 0
-6 -72 -58 -10 -60 0
6 72 59 11 60 0
-6 -72 -59 -11 -60 0
7 81 56 8 57 0
-7 -81 -56 -8 -57 0
7 82 56 8 58 0
-7 -82 -56 -8 -58 0
7 83 56 8 59 0
-7 -83 -56 -8 -59 0
7 84 56 8 60 0
-7 -84 -56 -8 -60 0
7 82 57 9 58 0
-7 -82 -57 -9 -58 0
7 83 57 9 59 0
-7 -83 -57 -9 -59 0
7 84 57 9 60 0
-7 -84 -57 -9 -60 0
7 83 58 10 59 0
-7 -83 -58 -10 -59 0
7 84 58 10 60 0
-7 -84 -58 -10 -60 0
7 84 59 11 60 0
-7 -84 -59 -11 -60 0
8 94 57 9 58 0
-8 -94 -57 -9 -58 0
8 95 57 9 59 0
-8 -95 -57 -9 -59 0
8 96 57 9 60 0
-8 -96 -57 -9 -60 0
8 95 58 10 59 0
-8 -95 -58 -10 -59 0
8 96 58 10 60 0
-8 -96 -58 -10 -60 0
8 96 59 11 60 0
-8 -96 -59 -11 -60 0
9 107 58 10 59 0
-9 -107 -58 -10 -59 0
9 108 58 10 60 0
-9 -108 -58 -10 -60 0
9 108 59 11 60 0
-9 -108 -59 -11 -60 0
10 120 59 11 60 0
-10 -120 -59 -11 -60 0
7 81 68 8 69 0
-7 -81 -68 -8 -69 0
7 82 68 8 70 0
-7 -82 -68 -8 -70 0
7 83 68 8 71 0
-7 -83 -68 -8 -71 0
7 84 68 8 72 0
-7 -84 -68 -8 -72 0
7 82 69 9 70 0
-7 -82 -69 -9 -70 0
7 83 69 9 71 0
-7 -83 -69 -9 -71 0
7 84 69 9 72 0
-7 -84 -69 -9 -72 0
7 83 70 10 71 0
-7 -83 -70 -10 -71 0
7 84 70 10 72 0
-7 -84 -70 -10 -72 0
7 84 71 11 72 0
-7 -84 -71 -11 -72 0
8 94 69 9 70 0
-8 -94 -69 -9 -70 0
8 95 69 9 71 0
-8 -95 -69 -9 -71 0
8 96 69 9 72 0
-8 -96 -69 -9 -72 0
8 95 70 10 71 0
-8 -95 -70 -10 -71 0
8 96 70 10 72 0
-8 -96 -70 -10 -72 0
8 96 71 11 72 0
-8 -96 -71 -11 -72 0
9 107 70 10 71 0
-9 -107 -70 -10 -71 0
9 108 70 10 72 0
-9 -108 -70 -10 -72 0
9 108 71 11 72 0
-9 -108 -71 -11 -72 0
10 120 71 11 72 0
-10 -120 -71 -11 -72 0
8 94 81 9 82 0
-8 -94 -81 -9 -82 0
8 95 81 9 83 0
-8 -95 -81 -9 -83 0
8 96 81 9 84 0
-8 -96 -81 -9 -84 0
8 95 82 10 83 0
-8 -95 -82 -10 -83 0
8 96 82 10 84 0
-8 -96 -82 -10 -84 0
8 96 83 11 84 0
-8 -96 -83 -11 -84 0
9 107 82 10 83 0
-9 -107 -82 -10 -83 0
9 108 82 10 84 0
-9 -108 -82 -10 -84 0
9 108 83 11 84 0
-9 -108 -83 -11 -84 0
10 120 83 11 84 0
-10 -120 -83 -11 -84 0
9 107 94 10 95 0
-9 -107 -94 -10 -95 0
9 108 94 10 96 0
-9 -108 -94 -10 -96 0
9 108 95 11 96 0
-9 -108 -95 -11 -96 0
10 120 95 11 96 0
-10 -120 -95 -11 -96 0
10 120 107 11 108 0
-10 -120 -107 -11 -108 0
16 42 29 17 30 0
-16 -42 -29 -17 -30 0
16 43 29 17 31 0
-16 -43 -29 -17 -31 0
16 44 29 17 32 0
-16 -44 -29 -17 -32 0
16 45 29 17 33 0
-16 -45 -29 -17 -33 0
16 46 29 17 34 0
-16 -46 -29 -17 -34 0
16 47 29 17 35 0
-16 -47 -29 -17 -35 0
16 48 29 17 36 0
-16 -48 -29 -17 -36 0
16 43 30 18 31 0
-16 -43 -30 -18 -31 0
16 44 30 18 32 0
-16 -44 -30 -18 -32 0
16 45 30 18 33 0
-16 -45 -30 -18 -33 0
16 46 30 18 34 0
-16 -46 -30 -18 -34 0
16 47 30 18 35 0
-16 -47 -30 -18 -35 0
16 48 30 18 36 0
-16 -48 -30 -18 -36 0
16 44 31 19 32 0
-16 -44 -31 -19 -32 0
16 45 31 19 33 0
-16 -45 -31 -19 -33 0
16 46 31 19 34 0
-16 -46 -31 -19 -34 0
16 47 31 19 35 0
-16 -47 -31 -19 -35 0
16 48 31 19 36 0
-16 -48 -31 -19 -36 0
16 45 32 20 33 0
-16 -45 -32 -20 -33 0
16 46 32 20 34 0
-16 -46 -32 -20 -34 0
16 47 32 20 35 0
-16 -47 -32 -20 -35 0
16 48 32 20 36 0
-16 -48 -32 -20 -36 0
16 46 33 21 34 0
-16 -46 -33 -21 -34 0
16 47 33 21 35 0
-16 -47 -33 -21 -35 0
16 48 33 21 36 0
-16 -48 -33 -21 -36 0
16 47 34 22 35 0
-16 -47 -34 -22 -35 0
16 48 34 22 36 0
-16 -48 -34 -22 -36 0
16 48 35 23 36 0
-16 -48 -35 -23 -36 0
17 55 30 18 31 0
-17 -55 -30 -18 -31 0
17 56 30 18 32 0
-17 -56 -30 -18 -32 0
17 57 30 18 33 0
-17 -57 -30 -18 -33 0
17 58 30 18 34 0
-17 -58 -30 -18 -34 0
17 59 30 18 35 0
-17 -59 -30 -18 -35 0
17 60 30 18 36 0
-17 -60 -30 -18 -36 0
17 56 31 19 32 0
-17 -56 -31 -19 -32 0
17 57 31 19 33 0
-17 -57 -31 -19 -33 0
17 58 31 19 34 0
-17 -58 -31 -19 -34 0
17 59 31 19 35 0
-17 -59 -31 -19 -35 0
17 60 31 19 36 0
-17 -60 -31 -19 -36 0
17 57 32 20 33 0
-17 -57 -32 -20 -33 0
17 58 32 20 34 0
-17 -58 -32 -20 -34 0
17 59 32 20 35 0
-17 -59 -32 -20 -35 0
17 60 32 20 36 0
-17 -60 -32 -20 -36 0
17 58 33 21 34 0
-17 -58 -33 -21 -34 0
17 59 33 21 35 0
-17 -59 -33 -21 -35 0
17 60 33 21 36 0
-17 -60 -33 -21 -36 0
17 59 34 22 35 0
-17 -59 -34 -22 -35 0
17 60 34 22 36 0
-17 -60 -34 -22 -36 0
17 60 35 23 36 0
-17 -60 -35 -23 -36 0
18 68 31 19 32 0
-18 -68 -31 -19 -32 0
18 69 31 19 33 0
-18 -69 -31 -19 -33 0
18 70 31 19 34 0
-18 -70 -31 -19 -34 0
18 71 31 19 35 0
-18 -71 -31 -19 -35 0
18 72 31 19 36 0
-18 -72 -31 -19 -36 0
18 69 32 20 33 0
-18 -69 -32 -20 -33 0
18 70 32 20 34 0
-18 -70 -32 -20 -34 0
18 71 32 20 35 0
-18 -71 -32 -20 -35 0
18 72 32 20 36 0
-18 -72 -32 -20 -36 0
18 70 33 21 34 0
-18 -70 -33 -21 -34 0
18 71 33 21 35 0
-18 -71 -33 -21 -35 0
18 72 33 21 36 0
-18 -72 -33 -21 -36 0
18 71 34 22 35 0
-18 -71 -34 -22 -35 0
18 72 34 22 36 0
-18 -72 -34 -22 -36 0
18 72 35 23 36 0
-18 -72 -35 -23 -36 0
19 81 32 20 33 0
-19 -81 -32 -20 -33 0
19 82 32 20 34 0
-19 -82 -32 -20 -34 0
19 83 32 20 35 0
-19 -83 -32 -20 -35 0
19 84 32 20 36 0
-19 -84 -32 -20 -36 0
19 82 33 21 34 0
-19 -82 -33 -21 -34 0
19 83 33 21 35 0
-19 -83 -33 -21 -35 0
19 84 33 21 36 0
-19 -84 -33 -21 -36 0
19 83 34 22 35 0
-19 -83 -34 -22 -35 0
19 84 34 22 36 0
-19 -84 -34 -22 -36 0
19 84 35 23 36 0
-19 -84 -35 -23 -36 0
20 94 33 21 34 0
-20 -94 -33 -21 -34 0
20 95 33 21 35 0
-20 -95 -33 -21 -35 0
20 96 33 21 36 0
-20 -96 -33 -21 -36 0
20 95 34 22 35 0
-20 -95 -34 -22 -35 0
20 96 34 22 36 0
-20 -96 -34 -22 -36 0
20 96 35 23 36 0
-20 -96 -35 -23 -36 0
21 107 34 22 35 0
-21 -107 -34 -22 -35 0
21 108 34 22 36 0
-21 -108 -34 -22 -36 0
21 108 35 23 36 0
-21 -108 -35 -23 -36 0
22 120 35 23 36 0
-22 -120 -35 -23 -36 0
17 55 42 18 43 0
-17 -55 -42 -18 -43 0
17 56 42 18 44 0
-17 -56 -42 -18 -44 0
17 57 42 18 45 0
-17 -57 -42 -18 -45 0
17 58 42 18 46 0
-17 -58 -42 -18 -46 0
17 59 42 18 47 0
-17 -59 -42 -18 -47 0
17 60 42 18 48 0
-17 -60 -42 -18 -48 0
17 56 43 19 44 0
-17 -56 -43 -19 -44 0
17 57 43 19 45 0
-17 -57 -43 -19 -45 0
17 58 43 19 46 0
-17 -58 -43 -19 -46 0
17 59 43 19 47 0
-17 -59 -43 -19 -47 0
17 60 43 19 48 0
-17 -60 -43 -19 -48 0
17 57 44 20 45 0
-17 -57 -44 -20 -45 0
17 58 44 20 46 0
-17 -58 -44 -20 -46 0
17 59 44 20 47 0
-17 -59 -44 -20 -47 0
17 60 44 20 48 0
-17 -60 -44 -20 -48 0
17 58 45 21 46 0
-17 -58 -45 -21 -46 0
17 59 45 21 47 0
-17 -59 -45 -21 -47 0
17 60 45 21 48 0
-17 -60 -45 -21 -48 0
17 59 46 22 47 0
-17 -59 -46 -22 -47 0
17 60 46 22 48 0
-17 -60 -46 -22 -48 0
17 60 47 23 48 0
-17 -60 -47 -23 -48 0
18 68 43 19 44 0
-18 -68 -43 -19 -44 0
18 69 43 19 45 0
-18 -69 -43 -19 -45 0
18 70 43 19 46 0
-18 -70 -43 -19 -46 0
18 71 43 19 47 0
-18 -71 -43 -19 -47 0
18 72 43 19 48 0
-18 -72 -43 -19 -48 0
18 69 44 20 45 0
-18 -69 -44 -20 -45 0
18 70 44 20 46 0
-18 -70 -44 -20 -46 0
18 71 44 20 47 0
-18 -71 -44 -20 -47 0
18 72 44 20 48 0
-18 -72 -44 -20 -48 0
18 70 45 21 46 0
-18 -70 -45 -21 -46 0
18 71 45 21 47 0
-18 -71 -45 -21 -47 0
18 72 45 21 48 0
-18 -72 -45 -21 -48 0
18 71 46 22 47 0
-18 -71 -46 -22 -47 0
18 72 46 22 48 0
-18 -72 -46 -22 -48 0
18 72 47 23 48 0
-18 -72 -47 -23 -48 0
19 81 44 20 45 0
-19 -81 -44 -20 -45 0
19 82 44 20 46 0
-19 -82 -44 -20 -46 0
19 83 44 20 47 0
-19 -83 -44 -20 -47 0
19 84 44 20 48 0
-19 -84 -44 -20 -48 0
19 82 45 21 46 0
-19 -82 -45 -21 -46 0
19 83 45 21 47 0
-19 -83 -45 -21 -47 0
19 84 45 21 48 0
-19 -84 -45 -21 -48 0
19 83 46 22 47 0
-19 -83 -46 -22 -47 0
19 84 46 22 48 0
-19 -84 -46 -22 -48 0
19 84 47 23 48 0
-19 -84 -47 -23 -48 0
20 94 45 21 46 0
-20 -94 -45 -21 -46 0
20 95 45 21 47 0
-20 -95 -45 -21 -47 0
20 96 45 21 48 0
-20 -96 -45 -21 -48 0
20 95 46 22 47 0
-20 -95 -46 -22 -47 0
20 96 46 22 48 0
-20 -96 -46 -22 -48 0
20 96 47 23 48 0
-20 -96 -47 -23 -48 0
21 107 46 22 47 0
-21 -107 -46 -22 -47 0
21 108 46 22 48 0
-21 -108 -46 -22 -48 0
21 108 47 23 48 0
-21 -108 -47 -23 -48 0
22 120 47 23 48 0
-22 -120 -47 -23 -48 0
18 68 55 19 56 0
-18 -68 -55 -19 -56 0
18 69 55 19 57 0
-18 -69 -55 -19 -57 0
18 70 55 19 58 0
-18 -70 -55 -19 -58 0
18 71 55 19 59 0
-18 -71 -55 -19 -59 0
18 72 55 19 60 0
-18 -72 -55 -19 -60 0
18 69 56 20 57 0
-18 -69 -56 -20 -57 0
18 70 56 20 58 0
-18 -70 -56 -20 -58 0
18 71 56 20 59 0
-18 -71 -56 -20 -59 0
18 72 56 20 60 0
-18 -72 -56 -20 -60 0
18 70 57 21 58 0
-18 -70 -57 -21 -58 0
18 71 57 21 59 0
-18 -71 -57 -21 -59 0
18 72 57 21 60 0
-18 -72 -57 -21 -60 0
18 71 58 22 59 0
-18 -71 -58 -22 -59 0
18 72 58 22 60 0
-18 -72 -58 -22 -60 0
18 72 59 23 60 0
-18 -72 -59 -23 -60 0
19 81 56 20 57 0
-19 -81 -56 -20 -57 0
19 82 56 20 58 0
-19 -82 -56 -20 -58 0
19 83 56 20 59 0
-19 -83 -56 -20 -59 0
19 84 56 20 60 0
-19 -84 -56 -20 -60 0
19 82 57 21 58 0
-19 -82 -57 -21 -58 0
19 83 57 21 59 0
-19 -83 -57 -21 -59 0
19 84 57 21 60 0
-19 -84 -57 -21 -60 0
19 83 58 22 59 0
-19 -83 -58 -22 -59 0
19 84 58 22 60 0
-19 -84 -58 -22 -60 0
19 84 59 23 60 0
-19 -84 -59 -23 -60 0
20 94 57 21 58 0
-20 -94 -57 -21 -58 0
20 95 57 21 59 0
-20 -95 -57 -21 -59 0
20 96 57 21 60 0
-20 -96 -57 -21 -60 0
20 95 58 22 59 0
-20 -95 -58 -22 -59 0
20 96 58 22 60 0
-20 -96 -58 -22 -60 0
20 96 59 23 60 0
-20 -96 -59 -23 -60 0
21 107 58 22 59 0
-21 -107 -58 -22 -59 0
21 108 58 22 60 0
-21 -108 -58 -22 -60 0
21 108 59 23 60 0
-21 -108 -59 -23 -60 0
22 120 59 23 60 0
-22 -120 -59 -23 -60 0
19 81 68 20 69 0
-19 -81 -68 -20 -69 0
19 82 68 20 70 0
-19 -82 -68 -20 -70 0
19 83 68 20 71 0
-19 -83 -68 -20 -71 0
19 84 68 20 72 0
-19 -84 -68 -20 -72 0
19 82 69 21 70 0
-19 -82 -69 -21 -70 0
19 83 69 21 71 0
-19 -83 -69 -21 -71 0
19 84 69 21 72 0
-19 -84 -69 -21 -72 0
19 83 70 22 71 0
-19 -83 -70 -22 -71 0
19 84 70 22 72 0
-19 -84 -70 -22 -72 0
19 84 71 23 72 0
-19 -84 -71 -23 -72 0
20 94 69 21 70 0
-20 -94 -69 -21 -70 0
20 95 69 21 71 0
-20 -95 -69 -21 -71 0
20 96 69 21 72 0
-20 -96 -69 -21 -72 0
20 95 70 22 71 0
-20 -95 -70 -22 -71 0
20 96 70 22 72 0
-20 -96 -70 -22 -72 0
20 96 71 23 72 0
-20 -96 -71 -23 -72 0
21 107 70 22 71 0
-21 -107 -70 -22 -71 0
21 108 70 22 72 0
-21 -108 -70 -22 -72 0
21 108 71 23 72 0
-21 -108 -71 -23 -72 0
22 120 71 23 72 0
-22 -120 -71 -23 -72 0
20 94 81 21 82 0
-20 -94 -81 -21 -82 0
20 95 81 21 83 0
-20 -95 -81 -21 -83 0
20 96 81 21 84 0
-20 -96 -81 -21 -84 0
20 95 82 22 83 0
-20 -95 -82 -22 -83 0
20 96 82 22 84 0
-20 -96 -82 -22 -84 0
20 96 83 23 84 0
-20 -96 -83 -23 -84 0
21 107 82 22 83 0
-21 -107 -82 -22 -83 0
21 108 82 22 84 0
-21 -108 -82 -22 -84 0
21 108 83 23 84 0
-21 -108 -83 -23 -84 0
22 120 83 23 84 0
-22 -120 -83 -23 -84 0
21 107 94 22 95 0
-21 -107 -94 -22 -95 0
21 108 94 22 96 0
-21 -108 -94 -22 -96 0
21 108 95 23 96 0
-21 -108 -95 -23 -96 0
22 120 95 23 96 0
-22 -120 -95 -23 -96 0
22 120 107 23 108 0
-22 -120 -107 -23 -108 0
29 55 42 30 43 0
-29 -55 -42 -30 -43 0
29 56 42 30 44 0
-29 -56 -42 -30 -44 0
29 57 42 30 45 0
-29 -57 -42 -30 -45 0
29 58 42 30 46 0
-29 -58 -42 -30 -46 0
29 59 42 30 47 0
-29 -59 -42 -30 -47 0
29 60 42 30 48 0
-29 -60 -42 -30 -48 0
29 56 43 31 44 0
-29 -56 -43 -31 -44 0
29 57 43 31 45 0
-29 -57 -43 -31 -45 0
29 58 43 31 46 0
-29 -58 -43 -31 -46 0
29 59 43 31 47 0
-29 -59 -43 -31 -47 0
29 60 43 31 48 0
-29 -60 -43 -31 -48 0
29 57 44 32 45 0
-29 -57 -44 -32 -45 0
29 58 44 32 46 0
-29 -58 -44 -32 -46 0
29 59 44 32 47 0
-29 -59 -44 -32 -47 0
29 60 44 32 48 0
-29 -60 -44 -32 -48 0
29 58 45 33 46 0
-29 -58 -45 -33 -46 0
29 59 45 33 47 0
-29 -59 -45 -33 -47 0
29 60 45 33 48 0
-29 -60 -45 -33 -48 0
29 59 46 34 47 0
-29 -59 -46 -34 -47 0
29 60 46 34 48 0
-29 -60 -46 -34 -48 0
29 60 47 35 48 0
-29 -60 -47 -35 -48 0
30 68 43 31 44 0
-30 -68 -43 -31 -44 0
30 69 43 31 45 0
-30 -69 -43 -31 -45 0
30 70 43 31 46 0
-30 -70 -43 -31 -46 0
30 71 43 31 47 0
-30 -71 -43 -31 -47 0
30 72 43 31 48 0
-30 -72 -43 -31 -48 0
30 69 44 32 45 0
-30 -69 -44 -32 -45 0
30 70 44 32 46 0
-30 -70 -44 -32 -46 0
30 71 44 32 47 0
-30 -71 -44 -32 -47 0
30 72 44 32 48 0
-30 -72 -44 -32 -48 0
30 70 45 33 46 0
-30 -70 -45 -33 -46 0
30 71 45 33 47 0
-30 -71 -45 -33 -47 0
30 72 45 33 48 0
-30 -72 -45 -33 -48 0
30 71 46 34 47 0
-30 -71 -46 -34 -47 0
30 72 46 34 48 0
-30 -72 -46 -34 -48 0
30 72 47 35 48 0
-30 -72 -47 -35 -48 0
31 81 44 32 45 0
-31 -81 -44 -32 -45 0
31 82 44 32 46 0
-31 -82 -44 -32 -46 0
31 83 44 32 47 0
-31 -83 -44 -32 -47 0
31 84 44 32 48 0
-31 -84 -44 -32 -48 0
31 82 45 33 46 0
-31 -82 -45 -33 -46 0
31 83 45 33 47 0
-31 -83 -45 -33 -47 0
31 84 45 33 48 0
-31 -84 -45 -33 -48 0
31 83 46 34 47 0
-31 -83 -46 -34 -47 0
31 84 46 34 48 0
-31 -84 -46 -34 -48 0
31 84 47 35 48 0
-31 -84 -47 -35 -48 0
32 94 45 33 46 0
-32 -94 -45 -33 -46 0
32 95 45 33 47 0
-32 -95 -45 -33 -47 0
32 96 45 33 48 0
-32 -96 -45 -33 -48 0
32 95 46 34 47 0
-32 -95 -46 -34 -47 0
32 96 46 34 48 0
-32 -96 -46 -34 -48 0
32 96 47 35 48 0
-32 -96 -47 -35 -48 0
33 107 46 34 47 0
-33 -107 -46 -34 -47 0
33 108 46 34 48 0
-33 -108 -46 -34 -48 0
33 108 47 35 48 0
-33 -108 -47 -35 -48 0
34 120 47 35 48 0
-34 -120 -47 -35 -48 0
30 68 55 31 56 0
-30 -68 -55 -31 -56 0
30 69 55 31 57 0
-30 -69 -55 -31 -57 0
30 70 55 31 58 0
-30 -70 -55 -31 -58 0
30 71 55 31 59 0
-30 -71 -55 -31 -59 0
30 72 55 31 60 0
-30 -72 -55 -31 -60 0
30 69 56 32 57 0
-30 -69 -56 -32 -57 0
30 70 56 32 58 0
-30 -70 -56 -32 -58 0
30 71 56 32 59 0
-30 -71 -56 -32 -59 0
30 72 56 32 60 0
-30 -72 -56 -32 -60 0
30 70 57 33 58 0
-30 -70 -57 -33 -58 0
30 71 57 33 59 0
-30 -71 -57 -33 -59 0
30 72 57 33 60 0
-30 -72 -57 -33 -60 0
30 71 58 34 59 0
-30 -71 -58 -34 -59 0
30 72 58 34 60 0
-30 -72 -58 -34 -60 0
30 72 59 35 60 0
-30 -72 -59 -35 -60 0
31 81 56 32 57 0
-31 -81 -56 -32 -57 0
31 82 56 32 58 0
-31 -82 -56 -32 -58 0
31 83 56 32 59 0
-31 -83 -56 -32 -59 0
31 84 56 32 60 0
-31 -84 -56 -32 -60 0
31 82 57 33 58 0
-31 -82 -57 -33 -58 0
31 83 57 33 59 0
-31 -83 -57 -33 -59 0
31 84 57 33 60 0
-31 -84 -57 -33 -60 0
31 83 58 34 59 0
-31 -83 -58 -34 -59 0
31 84 58 34 60 0
-31 -84 -58 -34 -60 0
31 84 59 35 60 0
-31 -84 -59 -35 -60 0
32 94 57 33 58 0
-32 -94 -57 -33 -58 0
32 95 57 33 59 0
-32 -95 -57 -33 -59 0
32 96 57 33 60 0
-32 -96 -57 -33 -60 0
32 95 58 34 59 0
-32 -95 -58 -34 -59 0
32 96 58 34 60 0
-32 -96 -58 -34 -60 0
32 96 59 35 60 0
-32 -96 -59 -35 -60 0
33 107 58 34 59 0
-33 -107 -58 -34 -59 0
33 108 58 34 60 0
-33 -108 -58 -34 -60 0
33 108 59 35 60 0
-33 -108 -59 -35 -60 0
34 120 59 35 60 0
-34 -120 -59 -35 -60 0
31 81 68 32 69 0
-31 -81 -68 -32 -69 0
31 82 68 32 70 0
-31 -82 -68 -32 -70 0
31 83 68 32 71 0
-31 -83 -68 -32 -71 0
31 84 68 32 72 0
-31 -84 -68 -32 -72 0
31 82 69 33 70 0
-31 -82 -69 -33 -70 0
31 83 69 33 71 0
-31 -83 -69 -33 -71 0
31 84 69 33 72 0
-31 -84 -69 -33 -72 0
31 83 70 34 71 0
-31 -83 -70 -34 -71 0
31 84 70 34 72 0
-31 -84 -70 -34 -72 0
31 84 71 35 72 0
-31 -84 -71 -35 -72 0
32 94 69 33 70 0
-32 -94 -69 -33 -70 0
32 95 69 33 71 0
-32 -95 -69 -33 -71 0
32 96 69 33 72 0
-32 -96 -69 -33 -72 0
32 95 70 34 71 0
-32 -95 -70 -34 -71 0
32 96 70 34 72 0
-32 -96 -70 -34 -72 0
32 96 71 35 72 0
-32 -96 -71 -35 -72 0
33 107 70 34 71 0
-33 -107 -70 -34 -71 0
33 108 70 34 72 0
-33 -108 -70 -34 -72 0
33 108 71 35 72 0
-33 -108 -71 -35 -72 0
34 120 71 35 72 0
-34 -120 -71 -35 -72 0
32 94 81 33 82 0
-32 -94 -81 -33 -82 0
32 95 81 33 83 0
-32 -95 -81 -33 -83 0
32 96 81 33 84 0
-32 -96 -81 -33 -84 0
32 95 82 34 83 0
-32 -95 -82 -34 -83 0
32 96 82 34 84 0
-32 -96 -82 -34 -84 0
32 96 83 35 84 0
-32 -96 -83 -35 -84 0
33 107 82 34 83 0
-33 -107 -82 -34 -83 0
33 108 82 34 84 0
-33 -108 -82 -34 -84 0
33 108 83 35 84 0
-33 -108 -83 -35 -84 0
34 120 83 35 84 0
-34 -120 -83 -35 -84 0
33 107 94 34 95 0
-33 -107 -94 -34 -95 0
33 108 94 34 96 0
-33 -108 -94 -34 -96 0
33 108 95 35 96 0
-33 -108 -95 -35 -96 0
34 120 95 35 96 0
-34 -120 -95 -35 -96 0
34 120 107 35 108 0
-34 -120 -107 -35 -108 0
42 68 55 43 56 0
-42 -68 -55 -43 -56 0
42 69 55 43 57 0
-42 -69 -55 -43 -57 0
42 70 55 43 58 0
-42 -70 -55 -43 -58 0
42 71 55 43 59 0
-42 -71 -55 -43 -59 0
42 72 55 43 60 0
-42 -72 -55 -43 -60 0
42 69 56 44 57 0
-42 -69 -56 -44 -57 0
42 70 56 44 58 0
-42 -70 -56 -44 -58 0
42 71 56 44 59 0
-42 -71 -56 -44 -59 0
42 72 56 44 60 0
-42 -72 -56 -44 -60 0
42 70 57 45 58 0
-42 -70 -57 -45 -58 0
42 71 57 45 59 0
-42 -71 -57 -45 -59 0
42 72 57 45 60 0
-42 -72 -57 -45 -60 0
42 71 58 46 59 0
-42 -71 -58 -46 -59 0
42 72 58 46 60 0
-42 -72 -58 -46 -60 0
42 72 59 47 60 0
-42 -72 -59 -47 -60 0
43 81 56 44 57 0
-43 -81 -56 -44 -57 0
43 82 56 44 58 0
-43 -82 -56 -44 -58 0
43 83 56 44 59 0
-43 -83 -56 -44 -59 0
43 84 56 44 60 0
-43 -84 -56 -44 -60 0
43 82 57 45 58 0
-43 -82 -57 -45 -58 0
43 83 57 45 59 0
-43 -83 -57 -45 -59 0
43 84 57 45 60 0
-43 -84 -57 -45 -60 0
43 83 58 46 59 0
-43 -83 -58 -46 -59 0
43 84 58 46 60 0
-43 -84 -58 -46 -60 0
43 84 59 47 60 0
-43 -84 -59 -47 -60 0
44 94 57 45 58 0
-44 -94 -57 -45 -58 0
44 95 57 45 59 0
-44 -95 -57 -45 -59 0
44 96 57 45 60 0
-44 -96 -57 -45 -60 0
44 95 58 46 59 0
-44 -95 -58 -46 -59 0
44 96 58 46 60 0
-44 -96 -58 -46 -60 0
44 96 59 47 60 0
-44 -96 -59 -47 -60 0
45 107 58 46 59 0
-45 -107 -58 -46 -59 0
45 108 58 46 60 0
-45 -108 -58 -46 -60 0
45 108 59 47 60 0
-45 -108 -59 -47 -60 0
46 120 59 47 60 0
-46 -120 -59 -47 -60 0
43 81 68 44 69 0
-43 -81 -68 -44 -69 0
43 82 68 44 70 0
-43 -82 -68 -44 -70 0
43 83 68 44 71 0
-43 -83 -68 -44 -71 0
43 84 68 44 72 0
-43 -84 -68 -44 -72 0
43 82 69 45 70 0
-43 -82 -69 -45 -70 0
43 83 69 45 71 0
-43 -83 -69 -45 -71 0
43 84 69 45 72 0
-43 -84 -69 -45 -72 0
43 83 70 46 71 0
-43 -83 -70 -46 -71 0
43 84 70 46 72 0
-43 -84 -70 -46 -72 0
43 84 71 47 72 0
-43 -84 -71 -47 -72 0
44 94 69 45 70 0
-44 -94 -69 -45 -70 0
44 95 69 45 71 0
-44 -95 -69 -45 -71 0
44 96 69 45 72 0
-44 -96 -69 -45 -72 0
44 95 70 46 71 0
-44 -95 -70 -46 -71 0
44 96 70 46 72 0
-44 -96 -70 -46 -72 0
44 96 71 47 72 0
-44 -96 -71 -47 -72 0
45 107 70 46 71 0
-45 -107 -70 -46 -71 0
45 108 70 46 72 0
-45 -108 -70 -46 -72 0
45 108 71 47 72 0
-45 -108 -71 -47 -72 0
46 120 71 47 72 0
-46 -120 -71 -47 -72 0
44 94 81 45 82 0
-44 -94 -81 -45 -82 0
44 95 81 45 83 0
-44 -95 -81 -45 -83 0
44 96 81 45 84 0
-44 -96 -81 -45 -84 0
44 95 82 46 83 0
-44 -95 -82 -46 -83 0
44 96 82 46 84 0
-44 -96 -82 -46 -84 0
44 96 83 47 84 0
-44 -96 -83 -47 -84 0
45 107 82 46 83 0
-45 -107 -82 -46 -83 0
45 108 82 46 84 0
-45 -108 -82 -46 -84 0
45 108 83 47 84 0
-45 -108 -83 -47 -84 0
46 120 83 47 84 0
-46 -120 -83 -47 -84 0
45 107 94 46 95 0
-45 -107 -94 -46 -95 0
45 108 94 46 96 0
-45 -108 -94 -46 -96 0
45 108 95 47 96 0
-45 -108 -95 -47 -96 0
46 120 95 47 96 0
-46 -120 -95 -47 -96 0
46 120 107 47 108 0
-46 -120 -107 -47 -108 0
55 81 68 56 69 0
-55 -81 -68 -56 -69 0
55 82 68 56 70 0
-55 -82 -68 -56 -70 0
55 83 68 56 71 0
-55 -83 -68 -56 -71 0
55 84 68 56 72 0
-55 -84 -68 -56 -72 0
55 82 69 57 70 0
-55 -82 -69 -57 -70 0
55 83 69 57 71 0
-55 -83 -69 -57 -71 0
55 84 69 57 72 0
-55 -84 -69 -57 -72 0
55 83 70 58 71 0
-55 -83 -70 -58 -71 0
55 84 70 58 72 0
-55 -84 -70 -58 -72 0
55 84 71 59 72 0
-55 -84 -71 -59 -72 0
56 94 69 57 70 0
-56 -94 -69 -57 -70 0
56 95 69 57 71 0
-56 -95 -69 -57 -71 0
56 96 69 57 72 0
-56 -96 -69 -57 -72 0
56 95 70 58 71 0
-56 -95 -70 -58 -71 0
56 96 70 58 72 0
-56 -96 -70 -58 -72 0
56 96 71 59 72 0
-56 -96 -71 -59 -72 0
57 107 70 58 71 0
-57 -107 -70 -58 -71 0
57 108 70 58 72 0
-57 -108 -70 -58 -72 0
57 108 71 59 72 0
-57 -108 -71 -59 -72 0
58 120 71 59 72 0
-58 -120 -71 -59 -72 0
56 94 81 57 82 0
-56 -94 -81 -57 -82 0
56 95 81 57 83 0
-56 -95 -81 -57 -83 0
56 96 81 57 84 0
-56 -96 -81 -57 -84 0
56 95 82 58 83 0
-56 -95 -82 -58 -83 0
56 96 82 58 84 0
-56 -96 -82 -58 -84 0
56 96 83 59 84 0
-56 -96 -83 -59 -84 0
57 107 82 58 83 0
-57 -107 -82 -58 -83 0
57 108 82 58 84 0
-57 -108 -82 -58 -84 0
57 108 83 59 84 0
-57 -108 -83 -59 -84 0
58 120 83 59 84 0
-58 -120 -83 -59 -84 0
57 107 94 58 95 0
-57 -107 -94 -58 -95 0
57 108 94 58 96 0
-57 -108 -94 -58 -96 0
57 108 95 59 96 0
-57 -108 -95 -59 -96 0
58 120 95 59 96 0
-58 -120 -95 -59 -96 0
58 120 107 59 108 0
-58 -120 -107 -59 -108 0
68 94 81 69 82 0
-68 -94 -81 -69 -82 0
68 95 81 69 83 0
-68 -95 -81 -69 -83 0
68 96 81 69 84 0
-68 -96 -81 -69 -84 0
68 95 82 70 83 0
-68 -95 -82 -70 -83 0
68 96 82 70 84 0
-68 -96 -82 -70 -84 0
68 96 83 71 84 0
-68 -96 -83 -71 -84 0
69 107 82 70 83 0
-69 -107 -82 -70 -83 0
69 108 82 70 84 0
-69 -108 -82 -70 -84 0
69 108 83 71 84 0
-69 -108 -83 -71 -84 0
70 120 83 71 84 0
-70 -120 -83 -71 -84 0
69 107 94 70 95 0
-69 -107 -94 -70 -95 0
69 108 94 70 96 0
-69 -108 -94 -70 -96 0
69 108 95 71 96 0
-69 -108 -95 -71 -96 0
70 120 95 71 96 0
-70 -120 -95 -71 -96 0
70 120 107 71 108 0
-70 -120 -107 -71 -108 0
81 107 94 82 95 0
-81 -107 -94 -82 -95 0
81 108 94 82 96 0
-81 -108 -94 -82 -96 0
81 108 95 83 96 0
-81 -108 -95 -83 -96 0
82 120 95 83 96 0
-82 -120 -95 -83 -96 0
82 120 107 83 108 0
-82 -120 -107 -83 -108 0
94 120 107 95 108 0
-94 -120 -107 -95 -108 0
3 0
